\* FishEggAllocation *\
Minimize
OBJ: 1000 dummy_penalty_0 + 1000 dummy_penalty_1 + 1000 dummy_penalty_10
 + 1000 dummy_penalty_11 + 1000 dummy_penalty_12 + 1000 dummy_penalty_13
 + 1000 dummy_penalty_14 + 1000 dummy_penalty_15 + 1000 dummy_penalty_16
 + 1000 dummy_penalty_2 + 1000 dummy_penalty_3 + 1000 dummy_penalty_4
 + 1000 dummy_penalty_5 + 1000 dummy_penalty_6 + 1000 dummy_penalty_7
 + 1000 dummy_penalty_8 + 1000 dummy_penalty_9 + 10 pref_penalty_0
 + 10 pref_penalty_1 + 10 pref_penalty_10 + 10 pref_penalty_11
 + 10 pref_penalty_12 + 10 pref_penalty_13 + 10 pref_penalty_14
 + 10 pref_penalty_15 + 10 pref_penalty_16 + 10 pref_penalty_2
 + 10 pref_penalty_3 + 10 pref_penalty_4 + 10 pref_penalty_5
 + 10 pref_penalty_6 + 10 pref_penalty_7 + 10 pref_penalty_8
 + 10 pref_penalty_9 + 0.61 x_0_0 + 8.01 x_0_1 + 2.09 x_0_2 + 3.39 x_0_4
 + 9.35 x_0_5 + 1.46 x_0_6 + 5.7 x_0_7 + 2.05 x_0_8 + 9.64 x_0_9 + 0.61 x_10_0
 + 8.01 x_10_1 + 2.09 x_10_2 + 3.39 x_10_4 + 9.35 x_10_5 + 1.46 x_10_6
 + 5.7 x_10_7 + 2.05 x_10_8 + 9.64 x_10_9 + 0.61 x_11_0 + 8.01 x_11_1
 + 2.09 x_11_2 + 3.39 x_11_4 + 9.35 x_11_5 + 1.46 x_11_6 + 5.7 x_11_7
 + 2.05 x_11_8 + 9.64 x_11_9 + 0.61 x_12_0 + 8.01 x_12_1 + 2.09 x_12_2
 + 3.39 x_12_4 + 9.35 x_12_5 + 1.46 x_12_6 + 5.7 x_12_7 + 2.05 x_12_8
 + 9.64 x_12_9 + 0.61 x_13_0 + 8.01 x_13_1 + 2.09 x_13_2 + 3.39 x_13_4
 + 9.35 x_13_5 + 1.46 x_13_6 + 5.7 x_13_7 + 2.05 x_13_8 + 9.64 x_13_9
 + 0.61 x_14_0 + 8.01 x_14_1 + 2.09 x_14_2 + 3.39 x_14_4 + 9.35 x_14_5
 + 1.46 x_14_6 + 5.7 x_14_7 + 2.05 x_14_8 + 9.64 x_14_9 + 0.61 x_15_0
 + 8.01 x_15_1 + 2.09 x_15_2 + 3.39 x_15_4 + 9.35 x_15_5 + 1.46 x_15_6
 + 5.7 x_15_7 + 2.05 x_15_8 + 9.64 x_15_9 + 0.61 x_16_0 + 8.01 x_16_1
 + 2.09 x_16_2 + 3.39 x_16_4 + 9.35 x_16_5 + 1.46 x_16_6 + 5.7 x_16_7
 + 2.05 x_16_8 + 9.64 x_16_9 + 0.61 x_1_0 + 8.01 x_1_1 + 2.09 x_1_2
 + 3.39 x_1_4 + 9.35 x_1_5 + 1.46 x_1_6 + 5.7 x_1_7 + 2.05 x_1_8 + 9.64 x_1_9
 + 0.61 x_2_0 + 8.01 x_2_1 + 2.09 x_2_2 + 3.39 x_2_4 + 9.35 x_2_5 + 1.46 x_2_6
 + 5.7 x_2_7 + 2.05 x_2_8 + 9.64 x_2_9 + 0.61 x_3_0 + 8.01 x_3_1 + 2.09 x_3_2
 + 3.39 x_3_4 + 9.35 x_3_5 + 1.46 x_3_6 + 5.7 x_3_7 + 2.05 x_3_8 + 9.64 x_3_9
 + 0.61 x_4_0 + 8.01 x_4_1 + 2.09 x_4_2 + 3.39 x_4_4 + 9.35 x_4_5 + 1.46 x_4_6
 + 5.7 x_4_7 + 2.05 x_4_8 + 9.64 x_4_9 + 0.61 x_5_0 + 8.01 x_5_1 + 2.09 x_5_2
 + 3.39 x_5_4 + 9.35 x_5_5 + 1.46 x_5_6 + 5.7 x_5_7 + 2.05 x_5_8 + 9.64 x_5_9
 + 0.61 x_6_0 + 8.01 x_6_1 + 2.09 x_6_2 + 3.39 x_6_4 + 9.35 x_6_5 + 1.46 x_6_6
 + 5.7 x_6_7 + 2.05 x_6_8 + 9.64 x_6_9 + 0.61 x_7_0 + 8.01 x_7_1 + 2.09 x_7_2
 + 3.39 x_7_4 + 9.35 x_7_5 + 1.46 x_7_6 + 5.7 x_7_7 + 2.05 x_7_8 + 9.64 x_7_9
 + 0.61 x_8_0 + 8.01 x_8_1 + 2.09 x_8_2 + 3.39 x_8_4 + 9.35 x_8_5 + 1.46 x_8_6
 + 5.7 x_8_7 + 2.05 x_8_8 + 9.64 x_8_9 + 0.61 x_9_0 + 8.01 x_9_1 + 2.09 x_9_2
 + 3.39 x_9_4 + 9.35 x_9_5 + 1.46 x_9_6 + 5.7 x_9_7 + 2.05 x_9_8 + 9.64 x_9_9
Subject To
_C1: x_0_0 + x_0_1 + x_0_10 + x_0_2 + x_0_3 + x_0_4 + x_0_5 + x_0_6 + x_0_7
 + x_0_8 + x_0_9 = 1
_C10: x_9_0 + x_9_1 + x_9_10 + x_9_2 + x_9_3 + x_9_4 + x_9_5 + x_9_6 + x_9_7
 + x_9_8 + x_9_9 = 1
_C100: pref_penalty_8 - x_8_0 - x_8_1 - x_8_2 - x_8_3 - x_8_4 - x_8_9 >= 0
_C101: pref_penalty_9 - x_9_1 - x_9_2 - x_9_3 - x_9_5 - x_9_6 - x_9_7 - x_9_8
 - x_9_9 >= 0
_C102: pref_penalty_10 - x_10_0 - x_10_1 - x_10_2 - x_10_3 - x_10_4 - x_10_9
 >= 0
_C103: pref_penalty_11 - x_11_0 - x_11_1 - x_11_3 - x_11_4 - x_11_5 - x_11_6
 - x_11_7 - x_11_8 >= 0
_C104: pref_penalty_12 - x_12_0 - x_12_1 - x_12_3 - x_12_4 - x_12_5 - x_12_6
 - x_12_7 - x_12_8 >= 0
_C105: pref_penalty_13 - x_13_0 - x_13_1 - x_13_3 - x_13_4 - x_13_5 - x_13_6
 - x_13_7 - x_13_8 >= 0
_C106: pref_penalty_14 - x_14_0 - x_14_1 - x_14_3 - x_14_4 - x_14_5 - x_14_6
 - x_14_7 - x_14_8 >= 0
_C107: pref_penalty_15 - x_15_1 - x_15_2 - x_15_3 - x_15_5 - x_15_6 - x_15_7
 - x_15_8 - x_15_9 >= 0
_C108: pref_penalty_16 - x_16_0 - x_16_1 - x_16_2 - x_16_3 - x_16_4 - x_16_5
 - x_16_6 - x_16_7 - x_16_8 - x_16_9 >= 0
_C109: x_0_0 = 0
_C11: x_10_0 + x_10_1 + x_10_10 + x_10_2 + x_10_3 + x_10_4 + x_10_5 + x_10_6
 + x_10_7 + x_10_8 + x_10_9 = 1
_C110: x_0_1 = 0
_C111: x_0_2 = 0
_C112: x_0_3 = 0
_C113: x_0_4 = 0
_C114: x_0_5 = 0
_C115: x_0_6 = 0
_C116: x_0_7 = 0
_C117: x_0_8 = 0
_C118: x_0_9 = 0
_C119: x_1_0 = 0
_C12: x_11_0 + x_11_1 + x_11_10 + x_11_2 + x_11_3 + x_11_4 + x_11_5 + x_11_6
 + x_11_7 + x_11_8 + x_11_9 = 1
_C120: x_1_1 = 0
_C121: x_1_2 = 0
_C122: x_1_3 = 0
_C123: x_1_4 = 0
_C124: x_1_5 = 0
_C125: x_1_6 = 0
_C126: x_1_7 = 0
_C127: x_1_8 = 0
_C128: x_1_9 = 0
_C129: x_2_0 = 0
_C13: x_12_0 + x_12_1 + x_12_10 + x_12_2 + x_12_3 + x_12_4 + x_12_5 + x_12_6
 + x_12_7 + x_12_8 + x_12_9 = 1
_C130: x_2_1 = 0
_C131: x_2_2 = 0
_C132: x_2_3 = 0
_C133: x_2_4 = 0
_C134: x_2_5 = 0
_C135: x_2_6 = 0
_C136: x_2_7 = 0
_C137: x_2_8 = 0
_C138: x_2_9 = 0
_C139: x_3_0 = 0
_C14: x_13_0 + x_13_1 + x_13_10 + x_13_2 + x_13_3 + x_13_4 + x_13_5 + x_13_6
 + x_13_7 + x_13_8 + x_13_9 = 1
_C140: x_3_1 = 0
_C141: x_3_2 = 0
_C142: x_3_3 = 0
_C143: x_3_4 = 0
_C144: x_3_5 = 0
_C145: x_3_7 = 0
_C146: x_3_8 = 0
_C147: x_3_9 = 0
_C148: x_4_0 = 0
_C149: x_4_1 = 0
_C15: x_14_0 + x_14_1 + x_14_10 + x_14_2 + x_14_3 + x_14_4 + x_14_5 + x_14_6
 + x_14_7 + x_14_8 + x_14_9 = 1
_C150: x_4_2 = 0
_C151: x_4_3 = 0
_C152: x_4_4 = 0
_C153: x_4_5 = 0
_C154: x_4_6 = 0
_C155: x_4_7 = 0
_C156: x_4_8 = 0
_C157: x_4_9 = 0
_C158: x_5_0 = 0
_C159: x_5_1 = 0
_C16: x_15_0 + x_15_1 + x_15_10 + x_15_2 + x_15_3 + x_15_4 + x_15_5 + x_15_6
 + x_15_7 + x_15_8 + x_15_9 = 1
_C160: x_5_2 = 0
_C161: x_5_3 = 0
_C162: x_5_4 = 0
_C163: x_5_5 = 0
_C164: x_5_6 = 0
_C165: x_5_7 = 0
_C166: x_5_8 = 0
_C167: x_5_9 = 0
_C168: x_6_0 = 0
_C169: x_6_1 = 0
_C17: x_16_0 + x_16_1 + x_16_10 + x_16_2 + x_16_3 + x_16_4 + x_16_5 + x_16_6
 + x_16_7 + x_16_8 + x_16_9 = 1
_C170: x_6_2 = 0
_C171: x_6_3 = 0
_C172: x_6_4 = 0
_C173: x_6_5 = 0
_C174: x_6_6 = 0
_C175: x_6_7 = 0
_C176: x_6_8 = 0
_C177: x_6_9 = 0
_C178: x_7_0 = 0
_C179: x_7_1 = 0
_C18: 1390500 x_0_0 + 2575000 x_10_0 + 927000 x_12_0 + 566500 x_13_0
 + 721000 x_1_0 + 1236000 x_2_0 + 4120000 x_7_0 + 824000 x_8_0 + 3605000 x_9_0
 <= 8728492.5
_C180: x_7_2 = 0
_C181: x_7_3 = 0
_C182: x_7_4 = 0
_C183: x_7_5 = 0
_C184: x_7_6 = 0
_C185: x_7_7 = 0
_C186: x_7_9 = 0
_C187: x_8_0 = 0
_C188: x_8_1 = 0
_C189: x_8_3 = 0
_C19: 1390500 x_0_0 + 2575000 x_10_0 + 737480 x_11_0 + 927000 x_12_0
 + 566500 x_13_0 + 30900 x_14_0 + 1699500 x_15_0 + 1854000 x_16_0
 + 721000 x_1_0 + 1236000 x_2_0 + 4635000 x_3_0 + 2781000 x_4_0
 + 1660360 x_5_0 + 2781000 x_6_0 + 4120000 x_7_0 + 824000 x_8_0
 + 3605000 x_9_0 <= 17456985
_C190: x_8_4 = 0
_C191: x_8_5 = 0
_C192: x_8_6 = 0
_C193: x_8_7 = 0
_C194: x_8_9 = 0
_C195: x_9_0 = 0
_C196: x_9_1 = 0
_C197: x_9_2 = 0
_C198: x_9_3 = 0
_C199: x_9_4 = 0
_C2: x_1_0 + x_1_1 + x_1_10 + x_1_2 + x_1_3 + x_1_4 + x_1_5 + x_1_6 + x_1_7
 + x_1_8 + x_1_9 = 1
_C20: 1390500 x_0_1 + 2575000 x_10_1 + 927000 x_12_1 + 566500 x_13_1
 + 721000 x_1_1 + 1236000 x_2_1 + 4120000 x_7_1 + 824000 x_8_1 + 3605000 x_9_1
 <= 7255468.08
_C200: x_9_5 = 0
_C201: x_9_6 = 0
_C202: x_9_7 = 0
_C203: x_9_8 = 0
_C204: x_9_9 = 0
_C205: x_10_0 = 0
_C206: x_10_1 = 0
_C207: x_10_2 = 0
_C208: x_10_3 = 0
_C209: x_10_4 = 0
_C21: 1390500 x_0_1 + 2575000 x_10_1 + 737480 x_11_1 + 927000 x_12_1
 + 566500 x_13_1 + 30900 x_14_1 + 1699500 x_15_1 + 1854000 x_16_1
 + 721000 x_1_1 + 1236000 x_2_1 + 4635000 x_3_1 + 2781000 x_4_1
 + 1660360 x_5_1 + 2781000 x_6_1 + 4120000 x_7_1 + 824000 x_8_1
 + 3605000 x_9_1 <= 18138670.2
_C210: x_10_5 = 0
_C211: x_10_7 = 0
_C212: x_10_8 = 0
_C213: x_10_9 = 0
_C214: x_11_0 = 0
_C215: x_11_1 = 0
_C216: x_11_2 = 0
_C217: x_11_3 = 0
_C218: x_11_4 = 0
_C219: x_11_5 = 0
_C22: 1390500 x_0_2 + 2575000 x_10_2 + 927000 x_12_2 + 566500 x_13_2
 + 721000 x_1_2 + 1236000 x_2_2 + 4120000 x_7_2 + 824000 x_8_2 + 3605000 x_9_2
 <= 20356698.5996
_C220: x_11_6 = 0
_C221: x_11_7 = 0
_C222: x_11_8 = 0
_C223: x_11_9 = 0
_C224: x_12_0 = 0
_C225: x_12_1 = 0
_C226: x_12_2 = 0
_C227: x_12_3 = 0
_C228: x_12_4 = 0
_C229: x_12_5 = 0
_C23: 1390500 x_0_2 + 2575000 x_10_2 + 737480 x_11_2 + 927000 x_12_2
 + 566500 x_13_2 + 30900 x_14_2 + 1699500 x_15_2 + 1854000 x_16_2
 + 721000 x_1_2 + 1236000 x_2_2 + 4635000 x_3_2 + 2781000 x_4_2
 + 1660360 x_5_2 + 2781000 x_6_2 + 4120000 x_7_2 + 824000 x_8_2
 + 3605000 x_9_2 <= 37012179.2721
_C230: x_12_6 = 0
_C231: x_12_7 = 0
_C232: x_12_8 = 0
_C233: x_12_9 = 0
_C234: x_13_0 = 0
_C235: x_13_1 = 0
_C236: x_13_3 = 0
_C237: x_13_4 = 0
_C238: x_13_5 = 0
_C239: x_13_6 = 0
_C24: 1390500 x_0_3 + 2575000 x_10_3 + 927000 x_12_3 + 566500 x_13_3
 + 721000 x_1_3 + 1236000 x_2_3 + 4120000 x_7_3 + 824000 x_8_3 + 3605000 x_9_3
 <= 0
_C240: x_13_7 = 0
_C241: x_13_9 = 0
_C242: x_14_0 = 0
_C243: x_14_1 = 0
_C244: x_14_2 = 0
_C245: x_14_3 = 0
_C246: x_14_4 = 0
_C247: x_14_5 = 0
_C248: x_14_6 = 0
_C249: x_14_7 = 0
_C25: 1390500 x_0_3 + 2575000 x_10_3 + 737480 x_11_3 + 927000 x_12_3
 + 566500 x_13_3 + 30900 x_14_3 + 1699500 x_15_3 + 1854000 x_16_3
 + 721000 x_1_3 + 1236000 x_2_3 + 4635000 x_3_3 + 2781000 x_4_3
 + 1660360 x_5_3 + 2781000 x_6_3 + 4120000 x_7_3 + 824000 x_8_3
 + 3605000 x_9_3 <= 23833600
_C250: x_14_8 = 0
_C251: x_14_9 = 0
_C252: x_15_0 = 0
_C253: x_15_1 = 0
_C254: x_15_2 = 0
_C255: x_15_3 = 0
_C256: x_15_4 = 0
_C257: x_15_5 = 0
_C258: x_15_6 = 0
_C259: x_15_7 = 0
_C26: 1390500 x_0_4 + 2575000 x_10_4 + 927000 x_12_4 + 566500 x_13_4
 + 721000 x_1_4 + 1236000 x_2_4 + 4120000 x_7_4 + 824000 x_8_4 + 3605000 x_9_4
 <= 8159051.25
_C260: x_15_8 = 0
_C261: x_15_9 = 0
_C262: x_16_0 = 0
_C263: x_16_1 = 0
_C264: x_16_3 = 0
_C265: x_16_4 = 0
_C266: x_16_5 = 0
_C267: x_16_6 = 0
_C268: x_16_7 = 0
_C269: x_16_9 = 0
_C27: 1390500 x_0_4 + 2575000 x_10_4 + 737480 x_11_4 + 927000 x_12_4
 + 566500 x_13_4 + 30900 x_14_4 + 1699500 x_15_4 + 1854000 x_16_4
 + 721000 x_1_4 + 1236000 x_2_4 + 4635000 x_3_4 + 2781000 x_4_4
 + 1660360 x_5_4 + 2781000 x_6_4 + 4120000 x_7_4 + 824000 x_8_4
 + 3605000 x_9_4 <= 16318102.5
_C28: 1390500 x_0_5 + 2575000 x_10_5 + 927000 x_12_5 + 566500 x_13_5
 + 721000 x_1_5 + 1236000 x_2_5 + 4120000 x_7_5 + 824000 x_8_5 + 3605000 x_9_5
 <= 0
_C29: 1390500 x_0_5 + 2575000 x_10_5 + 737480 x_11_5 + 927000 x_12_5
 + 566500 x_13_5 + 30900 x_14_5 + 1699500 x_15_5 + 1854000 x_16_5
 + 721000 x_1_5 + 1236000 x_2_5 + 4635000 x_3_5 + 2781000 x_4_5
 + 1660360 x_5_5 + 2781000 x_6_5 + 4120000 x_7_5 + 824000 x_8_5
 + 3605000 x_9_5 <= 11407200
_C3: x_2_0 + x_2_1 + x_2_10 + x_2_2 + x_2_3 + x_2_4 + x_2_5 + x_2_6 + x_2_7
 + x_2_8 + x_2_9 = 1
_C30: 1390500 x_0_6 + 2575000 x_10_6 + 927000 x_12_6 + 566500 x_13_6
 + 721000 x_1_6 + 1236000 x_2_6 + 4120000 x_7_6 + 824000 x_8_6 + 3605000 x_9_6
 <= 0
_C31: 1390500 x_0_6 + 2575000 x_10_6 + 737480 x_11_6 + 927000 x_12_6
 + 566500 x_13_6 + 30900 x_14_6 + 1699500 x_15_6 + 1854000 x_16_6
 + 721000 x_1_6 + 1236000 x_2_6 + 4635000 x_3_6 + 2781000 x_4_6
 + 1660360 x_5_6 + 2781000 x_6_6 + 4120000 x_7_6 + 824000 x_8_6
 + 3605000 x_9_6 <= 9225166
_C32: 1390500 x_0_7 + 2575000 x_10_7 + 927000 x_12_7 + 566500 x_13_7
 + 721000 x_1_7 + 1236000 x_2_7 + 4120000 x_7_7 + 824000 x_8_7 + 3605000 x_9_7
 <= 0
_C33: 1390500 x_0_7 + 2575000 x_10_7 + 737480 x_11_7 + 927000 x_12_7
 + 566500 x_13_7 + 30900 x_14_7 + 1699500 x_15_7 + 1854000 x_16_7
 + 721000 x_1_7 + 1236000 x_2_7 + 4635000 x_3_7 + 2781000 x_4_7
 + 1660360 x_5_7 + 2781000 x_6_7 + 4120000 x_7_7 + 824000 x_8_7
 + 3605000 x_9_7 <= 11407200
_C34: 1390500 x_0_8 + 2575000 x_10_8 + 927000 x_12_8 + 566500 x_13_8
 + 721000 x_1_8 + 1236000 x_2_8 + 4120000 x_7_8 + 824000 x_8_8 + 3605000 x_9_8
 <= 0
_C35: 1390500 x_0_8 + 2575000 x_10_8 + 737480 x_11_8 + 927000 x_12_8
 + 566500 x_13_8 + 30900 x_14_8 + 1699500 x_15_8 + 1854000 x_16_8
 + 721000 x_1_8 + 1236000 x_2_8 + 4635000 x_3_8 + 2781000 x_4_8
 + 1660360 x_5_8 + 2781000 x_6_8 + 4120000 x_7_8 + 824000 x_8_8
 + 3605000 x_9_8 <= 8563005
_C36: 1390500 x_0_9 + 2575000 x_10_9 + 927000 x_12_9 + 566500 x_13_9
 + 721000 x_1_9 + 1236000 x_2_9 + 4120000 x_7_9 + 824000 x_8_9 + 3605000 x_9_9
 <= 21655856.25
_C37: 1390500 x_0_9 + 2575000 x_10_9 + 737480 x_11_9 + 927000 x_12_9
 + 566500 x_13_9 + 30900 x_14_9 + 1699500 x_15_9 + 1854000 x_16_9
 + 721000 x_1_9 + 1236000 x_2_9 + 4635000 x_3_9 + 2781000 x_4_9
 + 1660360 x_5_9 + 2781000 x_6_9 + 4120000 x_7_9 + 824000 x_8_9
 + 3605000 x_9_9 <= 24062062.5
_C38: x_3_1 = 0
_C39: x_3_3 = 0
_C4: x_3_0 + x_3_1 + x_3_10 + x_3_2 + x_3_3 + x_3_4 + x_3_5 + x_3_6 + x_3_7
 + x_3_8 + x_3_9 = 1
_C40: x_3_5 = 0
_C41: x_3_6 = 0
_C42: x_3_7 = 0
_C43: x_3_8 = 0
_C44: x_3_9 = 0
_C45: x_2_0 = 0
_C46: x_2_1 = 0
_C47: x_2_2 = 0
_C48: x_2_3 = 0
_C49: x_2_4 = 0
_C5: x_4_0 + x_4_1 + x_4_10 + x_4_2 + x_4_3 + x_4_4 + x_4_5 + x_4_6 + x_4_7
 + x_4_8 + x_4_9 = 1
_C50: x_2_5 = 0
_C51: x_2_6 = 0
_C52: x_2_7 = 0
_C53: x_2_8 = 0
_C54: x_2_9 = 0
_C55: x_8_0 = 0
_C56: x_8_1 = 0
_C57: x_8_2 = 0
_C58: x_8_3 = 0
_C59: x_8_4 = 0
_C6: x_5_0 + x_5_1 + x_5_10 + x_5_2 + x_5_3 + x_5_4 + x_5_5 + x_5_6 + x_5_7
 + x_5_8 + x_5_9 = 1
_C60: x_8_5 = 0
_C61: x_8_6 = 0
_C62: x_8_7 = 0
_C63: x_8_8 = 0
_C64: x_8_9 = 0
_C65: x_10_0 = 0
_C66: x_10_1 = 0
_C67: x_10_2 = 0
_C68: x_10_3 = 0
_C69: x_10_4 = 0
_C7: x_6_0 + x_6_1 + x_6_10 + x_6_2 + x_6_3 + x_6_4 + x_6_5 + x_6_6 + x_6_7
 + x_6_8 + x_6_9 = 1
_C70: x_10_5 = 0
_C71: x_10_6 = 0
_C72: x_10_7 = 0
_C73: x_10_8 = 0
_C74: x_10_9 = 0
_C75: dummy_penalty_0 - x_0_10 >= 0
_C76: dummy_penalty_1 - x_1_10 >= 0
_C77: dummy_penalty_2 - x_2_10 >= 0
_C78: dummy_penalty_3 - x_3_10 >= 0
_C79: dummy_penalty_4 - x_4_10 >= 0
_C8: x_7_0 + x_7_1 + x_7_10 + x_7_2 + x_7_3 + x_7_4 + x_7_5 + x_7_6 + x_7_7
 + x_7_8 + x_7_9 = 1
_C80: dummy_penalty_5 - x_5_10 >= 0
_C81: dummy_penalty_6 - x_6_10 >= 0
_C82: dummy_penalty_7 - x_7_10 >= 0
_C83: dummy_penalty_8 - x_8_10 >= 0
_C84: dummy_penalty_9 - x_9_10 >= 0
_C85: dummy_penalty_10 - x_10_10 >= 0
_C86: dummy_penalty_11 - x_11_10 >= 0
_C87: dummy_penalty_12 - x_12_10 >= 0
_C88: dummy_penalty_13 - x_13_10 >= 0
_C89: dummy_penalty_14 - x_14_10 >= 0
_C9: x_8_0 + x_8_1 + x_8_10 + x_8_2 + x_8_3 + x_8_4 + x_8_5 + x_8_6 + x_8_7
 + x_8_8 + x_8_9 = 1
_C90: dummy_penalty_15 - x_15_10 >= 0
_C91: dummy_penalty_16 - x_16_10 >= 0
_C92: pref_penalty_0 - x_0_0 - x_0_1 - x_0_3 - x_0_4 - x_0_5 - x_0_6 - x_0_7
 - x_0_8 >= 0
_C93: pref_penalty_1 - x_1_0 - x_1_1 - x_1_3 - x_1_4 - x_1_5 - x_1_6 - x_1_7
 - x_1_8 >= 0
_C94: pref_penalty_2 - x_2_0 - x_2_1 - x_2_2 - x_2_3 - x_2_4 - x_2_9 >= 0
_C95: pref_penalty_3 - x_3_0 - x_3_1 - x_3_2 - x_3_3 - x_3_4 - x_3_5 - x_3_6
 - x_3_7 - x_3_8 - x_3_9 >= 0
_C96: pref_penalty_4 - x_4_1 - x_4_2 - x_4_3 - x_4_5 - x_4_6 - x_4_7 - x_4_8
 - x_4_9 >= 0
_C97: pref_penalty_5 - x_5_0 - x_5_1 - x_5_2 - x_5_3 - x_5_4 - x_5_5 - x_5_6
 - x_5_7 - x_5_8 - x_5_9 >= 0
_C98: pref_penalty_6 - x_6_1 - x_6_2 - x_6_3 - x_6_5 - x_6_6 - x_6_7 - x_6_8
 - x_6_9 >= 0
_C99: pref_penalty_7 - x_7_1 - x_7_2 - x_7_3 - x_7_5 - x_7_6 - x_7_7 - x_7_8
 - x_7_9 >= 0
Binaries
x_0_0
x_0_1
x_0_10
x_0_2
x_0_3
x_0_4
x_0_5
x_0_6
x_0_7
x_0_8
x_0_9
x_10_0
x_10_1
x_10_10
x_10_2
x_10_3
x_10_4
x_10_5
x_10_6
x_10_7
x_10_8
x_10_9
x_11_0
x_11_1
x_11_10
x_11_2
x_11_3
x_11_4
x_11_5
x_11_6
x_11_7
x_11_8
x_11_9
x_12_0
x_12_1
x_12_10
x_12_2
x_12_3
x_12_4
x_12_5
x_12_6
x_12_7
x_12_8
x_12_9
x_13_0
x_13_1
x_13_10
x_13_2
x_13_3
x_13_4
x_13_5
x_13_6
x_13_7
x_13_8
x_13_9
x_14_0
x_14_1
x_14_10
x_14_2
x_14_3
x_14_4
x_14_5
x_14_6
x_14_7
x_14_8
x_14_9
x_15_0
x_15_1
x_15_10
x_15_2
x_15_3
x_15_4
x_15_5
x_15_6
x_15_7
x_15_8
x_15_9
x_16_0
x_16_1
x_16_10
x_16_2
x_16_3
x_16_4
x_16_5
x_16_6
x_16_7
x_16_8
x_16_9
x_1_0
x_1_1
x_1_10
x_1_2
x_1_3
x_1_4
x_1_5
x_1_6
x_1_7
x_1_8
x_1_9
x_2_0
x_2_1
x_2_10
x_2_2
x_2_3
x_2_4
x_2_5
x_2_6
x_2_7
x_2_8
x_2_9
x_3_0
x_3_1
x_3_10
x_3_2
x_3_3
x_3_4
x_3_5
x_3_6
x_3_7
x_3_8
x_3_9
x_4_0
x_4_1
x_4_10
x_4_2
x_4_3
x_4_4
x_4_5
x_4_6
x_4_7
x_4_8
x_4_9
x_5_0
x_5_1
x_5_10
x_5_2
x_5_3
x_5_4
x_5_5
x_5_6
x_5_7
x_5_8
x_5_9
x_6_0
x_6_1
x_6_10
x_6_2
x_6_3
x_6_4
x_6_5
x_6_6
x_6_7
x_6_8
x_6_9
x_7_0
x_7_1
x_7_10
x_7_2
x_7_3
x_7_4
x_7_5
x_7_6
x_7_7
x_7_8
x_7_9
x_8_0
x_8_1
x_8_10
x_8_2
x_8_3
x_8_4
x_8_5
x_8_6
x_8_7
x_8_8
x_8_9
x_9_0
x_9_1
x_9_10
x_9_2
x_9_3
x_9_4
x_9_5
x_9_6
x_9_7
x_9_8
x_9_9
End
